db/data/1318616179270822056022133234852943115683.z3.out
-------------------
2500.187262567
